%
% Generated Sudoku 16x16
% Density approximation: 0.20
%
x = array2d(1..n, 1..n, [
  11,   _,   7,   _,   _,   _,  14,   _,   _,   _,   _,   _,   _,   1,   _,   _,
   _,   _,   _,   _,   1,   _,   _,   _,  11,   _,   _,   2,   _,   _,   _,   _,
   _,   _,   _,   _,   _,   _,   _,   _,   _,   _,   _,   _,   _,   _,   _,   _,
   _,   _,   _,   _,   _,  12,   6,   _,   _,   _,   _,   _,   _,   _,   _,   8,
   3,   _,   _,   _,   _,   _,   _,   _,   _,   _,   _,  16,   _,   _,   _,   _,
   _,   _,   _,  13,   _,   _,   _,  14,   _,   _,   _,   _,   _,   _,   _,   6,
   _,   _,   _,   _,  16,   _,   _,   _,   _,   _,   _,   8,   _,   _,   _,   _,
   _,  11,   _,  10,   _,   _,   4,   6,   _,   _,   2,   _,   _,   _,   _,   _,
  10,   _,   _,   _,   _,   _,   _,   _,   _,   _,   8,   _,   3,   _,   _,   _,
   _,   _,   _,   _,   _,   _,  10,   _,   _,   _,   _,   _,   _,   6,   2,   _,
   _,   1,   3,   _,   _,   9,   _,   _,   _,   _,   _,   7,   _,   4,   _,   _,
   _,   _,   _,   _,   _,   _,   _,   _,   _,   _,   _,  14,   _,   _,   _,   5,
   _,   _,   _,   _,  10,   _,   9,   _,   _,   1,   _,   _,   6,   _,   _,   _,
   _,   _,   _,   3,   _,   _,   _,  15,   8,   _,   _,   _,   _,   5,  16,   _,
   _,   5,   _,   _,  14,   8,   _,   1,   _,   _,   _,   _,   9,   _,   _,   4,
   _,   _,   _,   _,   _,   _,   _,   _,   4,   _,   _,   _,   8,   _,   _,   _
]);

n = 16;
